Second Year - 2020-2021/First Semester/Algorithm Analysis/Homework 2/sat_in/task2/06.cnf
p cnf 21 114
1 2 3 4 5 6 7 0
8 9 10 11 12 13 14 0
15 16 17 18 19 20 21 0
-1 -8 0
-2 -9 0
-3 -10 0
-4 -11 0
-5 -12 0
-6 -13 0
-7 -14 0
-1 -15 0
-2 -16 0
-3 -17 0
-4 -18 0
-5 -19 0
-6 -20 0
-7 -21 0
-8 -15 0
-9 -16 0
-10 -17 0
-11 -18 0
-12 -19 0
-13 -20 0
-14 -21 0
-1 -9 0
-1 -11 0
-2 -8 0
-2 -10 0
-2 -13 0
-3 -8 0
-3 -9 0
-3 -11 0
-3 -14 0
-4 -8 0
-4 -9 0
-4 -10 0
-4 -14 0
-5 -8 0
-5 -9 0
-5 -10 0
-5 -11 0
-5 -13 0
-5 -14 0
-6 -8 0
-6 -9 0
-6 -10 0
-6 -11 0
-6 -12 0
-7 -8 0
-7 -9 0
-7 -10 0
-7 -11 0
-7 -12 0
-7 -13 0
-1 -16 0
-1 -18 0
-2 -15 0
-2 -17 0
-2 -20 0
-3 -15 0
-3 -16 0
-3 -18 0
-3 -21 0
-4 -15 0
-4 -16 0
-4 -17 0
-4 -21 0
-5 -15 0
-5 -16 0
-5 -17 0
-5 -18 0
-5 -20 0
-5 -21 0
-6 -15 0
-6 -16 0
-6 -17 0
-6 -18 0
-6 -19 0
-7 -15 0
-7 -16 0
-7 -17 0
-7 -18 0
-7 -19 0
-7 -20 0
-8 -16 0
-8 -18 0
-9 -15 0
-9 -17 0
-9 -20 0
-10 -15 0
-10 -16 0
-10 -18 0
-10 -21 0
-11 -15 0
-11 -16 0
-11 -17 0
-11 -21 0
-12 -15 0
-12 -16 0
-12 -17 0
-12 -18 0
-12 -20 0
-12 -21 0
-13 -15 0
-13 -16 0
-13 -17 0
-13 -18 0
-13 -19 0
-14 -15 0
-14 -16 0
-14 -17 0
-14 -18 0
-14 -19 0
-14 -20 0
