Second Year/First Semester/Algorithm Analysis/Homework 2/sat_in/bonus/06.wcnf
p wcnf 9 21 97
97 1 4 0
97 1 5 0
97 1 7 0
97 1 9 0
97 2 4 0
97 3 4 0
97 4 6 0
97 4 7 0
97 5 7 0
97 6 8 0
97 6 9 0
97 7 9 0
8 -1 0
11 -2 0
11 -3 0
10 -4 0
11 -5 0
10 -6 0
11 -7 0
12 -8 0
12 -9 0
